<?xml version = "1.0" standalone="yes"?>
<!-- This file has been generated by DOcplex version 2.23.222  -->
<CPLEXSolution version="1.0">
 <header
   problemName="CVRP"
   objectiveValue="12746.1"
  />
 <variables>
  <variable name="x_0_1" index="0" value="1.00000"/>
  <variable name="x_0_2" index="1" value="1.00000"/>
  <variable name="x_0_3" index="2" value="1.00000"/>
  <variable name="x_0_4" index="3" value="1.00000"/>
  <variable name="x_0_5" index="4" value="1.00000"/>
  <variable name="x_0_8" index="7" value="1.00000"/>
  <variable name="x_0_10" index="9" value="1.00000"/>
  <variable name="x_0_11" index="10" value="1.00000"/>
  <variable name="x_0_13" index="12" value="1.00000"/>
  <variable name="x_0_15" index="14" value="1.00000"/>
  <variable name="x_1_7" index="22" value="1.00000"/>
  <variable name="x_2_6" index="37" value="1.00000"/>
  <variable name="x_3_0" index="48" value="1.00000"/>
  <variable name="x_4_0" index="64" value="1.00000"/>
  <variable name="x_5_14" index="93" value="1.00000"/>
  <variable name="x_6_0" index="96" value="1.00000"/>
  <variable name="x_7_0" index="112" value="1.00000"/>
  <variable name="x_8_12" index="139" value="1.00000"/>
  <variable name="x_9_0" index="144" value="1.00000"/>
  <variable name="x_10_16" index="175" value="1.00000"/>
  <variable name="x_11_9" index="185" value="1.00000"/>
  <variable name="x_12_0" index="192" value="1.00000"/>
  <variable name="x_13_0" index="208" value="1.00000"/>
  <variable name="x_14_0" index="224" value="1.00000"/>
  <variable name="x_15_0" index="240" value="1.00000"/>
  <variable name="x_16_0" index="256" value="1.00000"/>
  <variable name="u_1" index="272" value="33.00000"/>
  <variable name="u_2" index="273" value="59.00000"/>
  <variable name="u_3" index="274" value="76.00000"/>
  <variable name="u_4" index="275" value="74.00000"/>
  <variable name="u_5" index="276" value="67.00000"/>
  <variable name="u_6" index="277" value="76.00000"/>
  <variable name="u_7" index="278" value="76.00000"/>
  <variable name="u_8" index="279" value="26.00000"/>
  <variable name="u_9" index="280" value="76.00000"/>
  <variable name="u_10" index="281" value="44.00000"/>
  <variable name="u_11" index="282" value="50.00000"/>
  <variable name="u_12" index="283" value="70.00000"/>
  <variable name="u_13" index="284" value="58.00000"/>
  <variable name="u_14" index="285" value="75.00000"/>
  <variable name="u_15" index="286" value="76.00000"/>
  <variable name="u_16" index="287" value="76.00000"/>
 </variables>
</CPLEXSolution>
